
Gurobi 8.1.1 (linux64, Python) logging started Wed Sep 11 11:41:19 2019


Gurobi 8.1.1 (linux64, Python) logging started Wed Sep 11 11:42:38 2019


Gurobi 8.1.1 (linux64, Python) logging started Wed Sep 11 11:45:43 2019


Gurobi 8.1.1 (linux64, Python) logging started Wed Sep 11 11:46:21 2019

Academic license - for non-commercial use only
